NAME : rd100
TYPE : OP
DIMENSION : 100
COST_LIMIT : 4747
ROUTE_NODES : 65
ROUTE_SCORE : 3808
ROUTE_COST : 4742
NODE_SEQUENCE_SECTION
1
60
8
69
90
51
65
81
5
61
34
7
42
43
25
40
55
39
96
29
35
44
45
16
98
94
53
99
79
6
95
59
77
93
28
37
56
46
50
73
54
38
72
17
92
27
10
33
20
74
26
32
4
82
21
49
13
67
97
86
63
15
87
62
18
-1
DEPOT_SECTION
1
-1
EOF
